c User generated cnf file
p cnf 11 30
5 -5 9 0 
-4 8 10 0 
7 -2 8 0 
8 -3 5 0 
11 5 -1 0 
5 5 -7 0 
5 8 -6 0 
2 2 -5 0 
6 3 -2 0 
-4 7 7 0 
6 8 -6 0 
-2 9 3 0 
10 -11 3 0 
6 -10 6 0 
3 -11 8 0 
3 -5 1 0 
3 11 -11 0 
-9 8 10 0 
1 -1 2 0 
-8 7 6 0 
9 -3 6 0 
7 8 -8 0 
4 -4 2 0 
-10 3 11 0 
7 2 -1 0 
4 -9 11 0 
3 1 -7 0 
10 -11 11 0 
-6 11 7 0 
9 6 -5 0 
